TCS_Benchmarks/redos_fix/snort3_output_distinct_2065_2064_273_0.txt
(.*)(.*)
(.*)([pP].*[rR].*[oO].*[mM].*[pP])(.*)